;test regex \A\$6\$rounds=1000\$[a-zA-Z0-9./]{16}\$[a-zA-Z0-9./]{86}\z
(declare-const X String)
(assert (str.in_re X (re.++ (str.to_re "A") (re.++ (str.to_re "$") (re.++ (str.to_re "6") (re.++ (str.to_re "$") (re.++ (str.to_re "r") (re.++ (str.to_re "o") (re.++ (str.to_re "u") (re.++ (str.to_re "n") (re.++ (str.to_re "d") (re.++ (str.to_re "s") (re.++ (str.to_re "=") (re.++ (str.to_re "1000") (re.++ (str.to_re "$") (re.++ ((_ re.loop 16 16) (re.union (re.range "a" "z") (re.union (re.range "A" "Z") (re.union (re.range "0" "9") (re.union (str.to_re ".") (str.to_re "/")))))) (re.++ (str.to_re "$") (re.++ ((_ re.loop 86 86) (re.union (re.range "a" "z") (re.union (re.range "A" "Z") (re.union (re.range "0" "9") (re.union (str.to_re ".") (str.to_re "/")))))) (str.to_re "z")))))))))))))))))))
; sanitize danger characters:  < > ' " \ / &
(assert (not (str.in_re X (re.* (re.union (str.to_re "\u{3c}") (str.to_re "\u{3e}") (str.to_re "\u{27}") (str.to_re "\u{22}") (str.to_re "\u{5c}") (str.to_re "\u{2f}") (str.to_re "\u{26}"))))))
(assert (< 50 (str.len X)))
(check-sat)
(get-model)